Geographic Exponential Decay
20 312 83 151 207 97 154 192 294 1 6 287 0 62 316 185 101 210 189 240 11
p edge 320 320
e 0 226 31.0
e 0 181 39.0
e 0 304 26.0
e 0 189 38.0
e 0 307 85.0
e 1 68 32.0
e 1 160 35.0
e 1 232 42.0
e 1 119 46.0
e 1 94 21.0
e 1 0 40.0
e 2 287 7.0
e 2 1 59.0
e 3 18 3.0
e 3 2 12.0
e 4 51 4.0
e 4 3 4.0
e 5 10 3.0
e 5 4 5.0
e 6 135 18.0
e 6 69 59.0
e 6 207 52.0
e 6 50 35.0
e 6 208 1.0
e 6 5 94.0
e 7 145 4.0
e 7 6 14.0
e 8 178 9.0
e 8 182 6.0
e 8 7 4.0
e 9 205 2.0
e 9 8 23.0
e 11 60 66.0
e 11 107 42.0
e 11 233 28.0
e 11 250 45.0
e 11 234 11.0
e 11 9 60.0
e 12 265 2.0
e 12 11 89.0
e 13 136 4.0
e 13 12 3.0
e 14 112 3.0
e 14 13 2.0
e 15 16 8.0
e 15 14 1.0
e 17 102 5.0
e 17 15 2.0
e 19 52 8.0
e 19 17 11.0
e 20 99 6.0
e 20 19 11.0
e 21 32 5.0
e 21 20 4.0
e 22 146 5.0
e 22 21 1.0
e 23 24 12.0
e 23 22 6.0
e 25 53 1.0
e 25 23 5.0
e 26 144 1.0
e 26 25 1.0
e 27 198 6.0
e 27 26 2.0
e 28 239 1.0
e 28 27 3.0
e 29 308 1.0
e 29 28 3.0
e 30 120 2.0
e 30 29 6.0
e 31 91 23.0
e 31 229 4.0
e 31 30 12.0
e 33 118 1.0
e 33 31 1.0
e 34 126 1.0
e 34 33 2.0
e 35 128 1.0
e 35 34 1.0
e 36 184 1.0
e 36 35 5.0
e 37 66 1.0
e 37 36 3.0
e 38 246 1.0
e 38 37 1.0
e 39 49 1.0
e 39 38 1.0
e 40 80 3.0
e 40 39 1.0
e 41 207 82.0
e 42 285 22.0
e 42 121 16.0
e 42 40 7.0
e 43 305 11.0
e 43 42 3.0
e 44 114 1.0
e 44 43 1.0
e 45 188 6.0
e 45 44 2.0
e 46 139 39.0
e 46 45 5.0
e 47 317 2.0
e 47 46 2.0
e 48 54 5.0
e 48 47 8.0
e 55 61 4.0
e 55 48 1.0
e 56 106 5.0
e 56 55 11.0
e 57 309 1.0
e 57 56 1.0
e 58 279 1.0
e 58 57 1.0
e 59 310 1.0
e 59 58 5.0
e 62 221 57.0
e 62 169 74.0
e 62 116 5.0
e 62 204 75.0
e 62 63 72.0
e 62 59 60.0
e 64 110 1.0
e 64 62 57.0
e 65 109 1.0
e 65 64 1.0
e 67 201 1.0
e 67 65 2.0
e 70 71 2.0
e 70 67 2.0
e 72 206 40.0
e 72 222 38.0
e 72 73 49.0
e 72 70 9.0
e 74 286 2.0
e 74 72 7.0
e 75 111 3.0
e 75 74 4.0
e 76 140 6.0
e 76 75 5.0
e 77 261 1.0
e 77 76 2.0
e 78 113 39.0
e 78 139 29.0
e 78 127 11.0
e 79 183 24.0
e 79 77 1.0
e 81 311 1.0
e 81 79 9.0
e 82 83 95.0
e 82 81 7.0
e 83 253 98.0
e 83 84 41.0
e 83 85 30.0
e 83 86 55.0
e 87 88 1.0
e 87 82 2.0
e 89 277 4.0
e 89 87 4.0
e 90 173 9.0
e 90 89 1.0
e 91 195 3.0
e 92 115 1.0
e 92 90 1.0
e 93 258 5.0
e 93 92 4.0
e 95 302 1.0
e 95 93 3.0
e 96 137 3.0
e 96 95 1.0
e 97 130 1.0
e 97 147 19.0
e 97 149 66.0
e 97 98 54.0
e 97 242 94.0
e 97 96 69.0
e 100 101 6.0
e 100 97 83.0
e 101 295 37.0
e 101 103 48.0
e 101 282 78.0
e 101 104 80.0
e 105 148 3.0
e 105 100 9.0
e 108 117 2.0
e 108 105 8.0
e 122 123 2.0
e 122 108 2.0
e 124 125 1.0
e 124 122 1.0
e 129 162 2.0
e 129 124 1.0
e 130 133 49.0
e 130 131 20.0
e 132 235 10.0
e 132 129 8.0
e 134 138 2.0
e 134 132 10.0
e 139 141 40.0
e 142 143 4.0
e 142 134 1.0
e 150 301 6.0
e 150 142 11.0
e 151 189 45.0
e 151 152 48.0
e 151 153 13.0
e 151 154 5.0
e 151 155 4.0
e 154 155 73.0
e 154 156 53.0
e 154 157 76.0
e 154 158 17.0
e 159 180 4.0
e 159 150 10.0
e 161 163 1.0
e 161 159 1.0
e 164 230 8.0
e 164 161 5.0
e 165 166 26.0
e 165 164 10.0
e 166 243 15.0
e 166 167 24.0
e 168 170 1.0
e 168 165 1.0
e 171 284 5.0
e 171 168 2.0
e 172 222 14.0
e 172 174 40.0
e 172 175 48.0
e 176 177 2.0
e 176 171 2.0
e 179 267 2.0
e 179 176 3.0
e 183 185 34.0
e 185 186 14.0
e 185 237 38.0
e 185 187 28.0
e 185 259 31.0
e 189 190 1.0
e 189 191 33.0
e 189 192 22.0
e 192 193 19.0
e 192 194 65.0
e 192 196 39.0
e 192 312 20.0
e 193 197 16.0
e 199 200 9.0
e 199 179 4.0
e 202 203 1.0
e 202 199 1.0
e 207 276 19.0
e 207 292 48.0
e 207 209 95.0
e 209 210 61.0
e 209 211 46.0
e 210 212 4.0
e 210 213 13.0
e 210 214 61.0
e 210 215 30.0
e 216 217 2.0
e 216 202 11.0
e 218 219 2.0
e 218 216 7.0
e 220 223 1.0
e 220 218 1.0
e 224 247 20.0
e 224 238 9.0
e 224 220 22.0
e 225 227 4.0
e 225 224 25.0
e 228 248 2.0
e 228 225 5.0
e 231 236 4.0
e 231 228 4.0
e 240 268 61.0
e 240 241 1.0
e 240 312 7.0
e 240 244 100.0
e 240 245 76.0
e 249 251 9.0
e 249 231 6.0
e 252 253 11.0
e 254 255 7.0
e 254 249 2.0
e 256 257 1.0
e 256 254 5.0
e 260 262 1.0
e 260 256 3.0
e 263 264 7.0
e 263 260 3.0
e 266 269 3.0
e 266 263 5.0
e 270 271 2.0
e 270 266 2.0
e 272 273 1.0
e 272 270 1.0
e 274 275 1.0
e 274 272 1.0
e 278 280 1.0
e 278 274 1.0
e 281 283 23.0
e 283 287 21.0
e 287 288 76.0
e 287 289 64.0
e 287 296 93.0
e 288 290 15.0
e 291 292 3.0
e 291 293 19.0
e 294 297 80.0
e 294 298 20.0
e 294 305 50.0
e 294 299 64.0
e 294 300 42.0
e 300 303 1.0
e 306 312 12.0
e 312 313 37.0
e 312 314 43.0
e 315 316 77.0
e 315 278 1.0
e 316 318 47.0
e 316 319 55.0
